1111100 AB
313 340 368 392 413 435 457 479 508 539 569 601 633 653 674 696 718 747 777 807 837 867 897 927 949 971 994 1017 1041 1066 1091 1116 1141 1153 1165 1195 1233 1252 1271 1311 1331 1351 1391 1431 31 71
1111100 BA
328 352 366 379 407 434 462 484 494 506 528 557 588 615 645 677 697 718 740 762 791 821 851 881 911 941 971 993 1015 1038 1061 1085 1110 1135 1159 1183 1207 1237 1274 1310 1350 1390 1430 30 272 299
0000011 AB
313 341 369 397 425 453 484 515 546 586 626 657 687 717 748 778 808 838 868 899 929 959 990 1020 1050 1081 1111 1141 1172 1202 1232 1247 1289 1309 1329 1368 1408 7 48 87
0000011 BA
300 328 352 380 408 438 470 484 498 529 560 591 631 671 702 732 762 793 823 853 883 913 944 974 1004 1035 1065 1095 1126 1156 1186 1217 1247 1288 1328 1368 1407 7 46 272
